NAME 
ROWS
 N  OBJ
 L  R0      
 L  R1      
 L  R2      
 E  R3      
 E  R4      
 E  R5      
 E  R6      
 E  R7      
 E  R8      
 E  R9      
 E  R10     
 E  R11     
 E  R12     
COLUMNS
    MARKER    'MARKER'                 'INTORG'
    I0(8)     OBJ       -11
    I0(8)     R0        73
    I0(8)     R1        189
    I0(8)     R2        -32
    I0(8)     R3        4
    I0(8)     R4        15
    I0(8)     R5        4
    I0(8)     R6        -1
    I0(8)     R12       1
    I1(7)     OBJ       -146
    I1(7)     R0        193
    I1(7)     R1        73
    I1(7)     R2        -121
    I1(7)     R3        17
    I1(7)     R4        14
    I1(7)     R6        1
    I1(7)     R12       1
    I2(6)     OBJ       53
    I2(6)     R0        -75
    I2(6)     R1        -164
    I2(6)     R2        -65
    I2(6)     R4        1
    I2(6)     R6        19
    I2(6)     R12       1
    I3(8)     OBJ       -132
    I3(8)     R0        63
    I3(8)     R1        -129
    I3(8)     R2        -143
    I3(8)     R3        7
    I3(8)     R4        16
    I3(8)     R5        3
    I3(8)     R6        2
    I3(8)     R12       1
    MARKER    'MARKER'                 'INTEND'
    C4(9)     OBJ       8
    C4(9)     R0        -9
    C4(9)     R1        -2
    C4(9)     R2        6
    C4(9)     R3        19
    C4(9)     R4        14
    C4(9)     R7        19
    C4(9)     R8        8
    C4(9)     R9        15
    C4(9)     R11       -1
    C5(10)    OBJ       2
    C5(10)    R0        -4
    C5(10)    R1        6
    C5(10)    R2        -7
    C5(10)    R3        7
    C5(10)    R4        7
    C5(10)    R6        3
    C5(10)    R7        14
    C5(10)    R8        3
    C5(10)    R9        14
    C5(10)    R11       16
    C6(11)    OBJ       8
    C6(11)    R0        -8
    C6(11)    R1        -2
    C6(11)    R2        -4
    C6(11)    R3        18
    C6(11)    R4        14
    C6(11)    R6        7
    C6(11)    R7        8
    C6(11)    R8        10
    C6(11)    R9        16
    C6(11)    R10       -1
    C6(11)    R11       11
    C7(10)    OBJ       -5
    C7(10)    R0        4
    C7(10)    R1        2
    C7(10)    R2        5
    C7(10)    R3        11
    C7(10)    R4        5
    C7(10)    R5        7
    C7(10)    R6        1
    C7(10)    R9        17
    C7(10)    R10       16
    C7(10)    R11       11
    C8(10)    OBJ       -7
    C8(10)    R0        -4
    C8(10)    R1        9
    C8(10)    R2        -4
    C8(10)    R3        3
    C8(10)    R4        2
    C8(10)    R5        3
    C8(10)    R6        14
    C8(10)    R7        13
    C8(10)    R8        10
    C8(10)    R9        -1
    C9(11)    OBJ       6
    C9(11)    R0        -7
    C9(11)    R1        -10
    C9(11)    R2        -7
    C9(11)    R3        17
    C9(11)    R4        10
    C9(11)    R5        9
    C9(11)    R6        10
    C9(11)    R7        -1
    C9(11)    R9        2
    C9(11)    R10       2
    C9(11)    R11       11
    C10(1)    R3        1
    C11(1)    R4        1
    C12(1)    R5        1
    C13(1)    R6        1
    C14(1)    R7        1
    C15(1)    R8        1
    C16(1)    R9        1
    C17(1)    R10       1
    C18(1)    R11       1
    C19(1)    R12       1
RHS
    RHS1      R0        1.8003571428571450e+02
    RHS1      R1        1.3929464285714272e+02
    RHS1      R2        -1.3058928571428547e+02
    RHS1      R3        78
    RHS1      R4        59
    RHS1      R5        54
    RHS1      R6        97
    RHS1      R7        91
    RHS1      R8        95
    RHS1      R9        78
    RHS1      R10       54
    RHS1      R11       71
    RHS1      R12       1
BOUNDS
 UP BND1      I0(8)     1
 UP BND1      I1(7)     1
 UP BND1      I2(6)     1
 UP BND1      I3(8)     1
ENDATA
